p cnf 25	704
1	3	7	0
-1	-3	-7	0
1	3	10	0
-1	-3	-10	0
1	3	12	0
-1	-3	-12	0
1	3	20	0
-1	-3	-20	0
1	6	7	0
-1	-6	-7	0
1	6	11	0
-1	-6	-11	0
1	6	12	0
-1	-6	-12	0
1	6	14	0
-1	-6	-14	0
1	6	20	0
-1	-6	-20	0
1	7	10	0
-1	-7	-10	0
1	7	11	0
-1	-7	-11	0
1	7	14	0
-1	-7	-14	0
1	7	20	0
-1	-7	-20	0
1	11	12	0
-1	-11	-12	0
1	11	14	0
-1	-11	-14	0
1	11	22	0
-1	-11	-22	0
1	12	14	0
-1	-12	-14	0
2	4	6	0
-2	-4	-6	0
2	4	10	0
-2	-4	-10	0
2	4	11	0
-2	-4	-11	0
2	4	13	0
-2	-4	-13	0
2	4	15	0
-2	-4	-15	0
2	4	18	0
-2	-4	-18	0
2	4	19	0
-2	-4	-19	0
2	5	8	0
-2	-5	-8	0
2	5	12	0
-2	-5	-12	0
2	5	13	0
-2	-5	-13	0
2	5	15	0
-2	-5	-15	0
2	5	16	0
-2	-5	-16	0
2	5	18	0
-2	-5	-18	0
2	5	22	0
-2	-5	-22	0
2	5	24	0
-2	-5	-24	0
2	6	11	0
-2	-6	-11	0
2	6	12	0
-2	-6	-12	0
2	6	13	0
-2	-6	-13	0
2	6	17	0
-2	-6	-17	0
2	6	23	0
-2	-6	-23	0
2	6	24	0
-2	-6	-24	0
2	8	12	0
-2	-8	-12	0
2	8	13	0
-2	-8	-13	0
2	8	16	0
-2	-8	-16	0
2	8	18	0
-2	-8	-18	0
2	8	22	0
-2	-8	-22	0
2	8	23	0
-2	-8	-23	0
2	8	24	0
-2	-8	-24	0
2	10	15	0
-2	-10	-15	0
2	10	19	0
-2	-10	-19	0
2	10	23	0
-2	-10	-23	0
2	10	24	0
-2	-10	-24	0
2	11	12	0
-2	-11	-12	0
2	11	16	0
-2	-11	-16	0
2	11	18	0
-2	-11	-18	0
2	11	22	0
-2	-11	-22	0
2	11	23	0
-2	-11	-23	0
2	12	13	0
-2	-12	-13	0
2	12	15	0
-2	-12	-15	0
2	12	16	0
-2	-12	-16	0
2	12	17	0
-2	-12	-17	0
2	12	19	0
-2	-12	-19	0
2	12	23	0
-2	-12	-23	0
2	13	15	0
-2	-13	-15	0
2	13	16	0
-2	-13	-16	0
2	13	17	0
-2	-13	-17	0
2	13	22	0
-2	-13	-22	0
2	13	23	0
-2	-13	-23	0
2	15	16	0
-2	-15	-16	0
2	15	17	0
-2	-15	-17	0
2	15	18	0
-2	-15	-18	0
2	15	19	0
-2	-15	-19	0
2	15	23	0
-2	-15	-23	0
2	15	24	0
-2	-15	-24	0
2	16	17	0
-2	-16	-17	0
2	16	18	0
-2	-16	-18	0
2	16	19	0
-2	-16	-19	0
2	16	22	0
-2	-16	-22	0
2	16	23	0
-2	-16	-23	0
2	16	24	0
-2	-16	-24	0
2	17	19	0
-2	-17	-19	0
2	17	22	0
-2	-17	-22	0
2	17	23	0
-2	-17	-23	0
2	18	19	0
-2	-18	-19	0
2	18	24	0
-2	-18	-24	0
2	19	23	0
-2	-19	-23	0
2	19	24	0
-2	-19	-24	0
2	22	23	0
-2	-22	-23	0
2	22	24	0
-2	-22	-24	0
2	23	24	0
-2	-23	-24	0
3	4	7	0
-3	-4	-7	0
3	4	10	0
-3	-4	-10	0
3	4	13	0
-3	-4	-13	0
3	4	15	0
-3	-4	-15	0
3	7	10	0
-3	-7	-10	0
3	7	13	0
-3	-7	-13	0
3	7	17	0
-3	-7	-17	0
3	7	20	0
-3	-7	-20	0
3	7	23	0
-3	-7	-23	0
3	10	15	0
-3	-10	-15	0
3	10	23	0
-3	-10	-23	0
3	10	24	0
-3	-10	-24	0
3	12	13	0
-3	-12	-13	0
3	12	15	0
-3	-12	-15	0
3	12	17	0
-3	-12	-17	0
3	12	23	0
-3	-12	-23	0
3	13	15	0
-3	-13	-15	0
3	13	17	0
-3	-13	-17	0
3	13	20	0
-3	-13	-20	0
3	13	23	0
-3	-13	-23	0
3	15	17	0
-3	-15	-17	0
3	15	23	0
-3	-15	-23	0
3	15	24	0
-3	-15	-24	0
3	17	23	0
-3	-17	-23	0
3	20	24	0
-3	-20	-24	0
3	23	24	0
-3	-23	-24	0
4	6	7	0
-4	-6	-7	0
4	6	11	0
-4	-6	-11	0
4	6	13	0
-4	-6	-13	0
4	7	10	0
-4	-7	-10	0
4	7	11	0
-4	-7	-11	0
4	7	13	0
-4	-7	-13	0
4	7	19	0
-4	-7	-19	0
4	7	21	0
-4	-7	-21	0
4	10	15	0
-4	-10	-15	0
4	10	19	0
-4	-10	-19	0
4	11	18	0
-4	-11	-18	0
4	11	21	0
-4	-11	-21	0
4	13	15	0
-4	-13	-15	0
4	15	18	0
-4	-15	-18	0
4	15	19	0
-4	-15	-19	0
4	15	21	0
-4	-15	-21	0
4	18	19	0
-4	-18	-19	0
5	7	8	0
-5	-7	-8	0
5	7	13	0
-5	-7	-13	0
5	7	14	0
-5	-7	-14	0
5	7	16	0
-5	-7	-16	0
5	8	12	0
-5	-8	-12	0
5	8	13	0
-5	-8	-13	0
5	8	16	0
-5	-8	-16	0
5	8	18	0
-5	-8	-18	0
5	8	22	0
-5	-8	-22	0
5	8	24	0
-5	-8	-24	0
5	12	13	0
-5	-12	-13	0
5	12	14	0
-5	-12	-14	0
5	12	15	0
-5	-12	-15	0
5	12	16	0
-5	-12	-16	0
5	13	14	0
-5	-13	-14	0
5	13	15	0
-5	-13	-15	0
5	13	16	0
-5	-13	-16	0
5	13	22	0
-5	-13	-22	0
5	14	15	0
-5	-14	-15	0
5	14	16	0
-5	-14	-16	0
5	14	24	0
-5	-14	-24	0
5	15	16	0
-5	-15	-16	0
5	15	18	0
-5	-15	-18	0
5	15	24	0
-5	-15	-24	0
5	16	18	0
-5	-16	-18	0
5	16	22	0
-5	-16	-22	0
5	16	24	0
-5	-16	-24	0
5	18	24	0
-5	-18	-24	0
5	22	24	0
-5	-22	-24	0
6	7	9	0
-6	-7	-9	0
6	7	11	0
-6	-7	-11	0
6	7	13	0
-6	-7	-13	0
6	7	14	0
-6	-7	-14	0
6	7	17	0
-6	-7	-17	0
6	7	20	0
-6	-7	-20	0
6	7	23	0
-6	-7	-23	0
6	9	11	0
-6	-9	-11	0
6	9	12	0
-6	-9	-12	0
6	9	13	0
-6	-9	-13	0
6	9	14	0
-6	-9	-14	0
6	9	23	0
-6	-9	-23	0
6	9	24	0
-6	-9	-24	0
6	11	12	0
-6	-11	-12	0
6	11	14	0
-6	-11	-14	0
6	11	23	0
-6	-11	-23	0
6	12	13	0
-6	-12	-13	0
6	12	14	0
-6	-12	-14	0
6	12	17	0
-6	-12	-17	0
6	12	23	0
-6	-12	-23	0
6	13	14	0
-6	-13	-14	0
6	13	17	0
-6	-13	-17	0
6	13	20	0
-6	-13	-20	0
6	13	23	0
-6	-13	-23	0
6	14	23	0
-6	-14	-23	0
6	14	24	0
-6	-14	-24	0
6	17	23	0
-6	-17	-23	0
6	20	24	0
-6	-20	-24	0
6	23	24	0
-6	-23	-24	0
7	8	9	0
-7	-8	-9	0
7	8	13	0
-7	-8	-13	0
7	8	16	0
-7	-8	-16	0
7	8	20	0
-7	-8	-20	0
7	8	23	0
-7	-8	-23	0
7	9	11	0
-7	-9	-11	0
7	9	13	0
-7	-9	-13	0
7	9	14	0
-7	-9	-14	0
7	9	19	0
-7	-9	-19	0
7	9	21	0
-7	-9	-21	0
7	9	23	0
-7	-9	-23	0
7	10	19	0
-7	-10	-19	0
7	10	23	0
-7	-10	-23	0
7	11	14	0
-7	-11	-14	0
7	11	16	0
-7	-11	-16	0
7	11	21	0
-7	-11	-21	0
7	11	23	0
-7	-11	-23	0
7	13	14	0
-7	-13	-14	0
7	13	16	0
-7	-13	-16	0
7	13	17	0
-7	-13	-17	0
7	13	20	0
-7	-13	-20	0
7	13	23	0
-7	-13	-23	0
7	14	16	0
-7	-14	-16	0
7	14	19	0
-7	-14	-19	0
7	14	23	0
-7	-14	-23	0
7	16	17	0
-7	-16	-17	0
7	16	19	0
-7	-16	-19	0
7	16	21	0
-7	-16	-21	0
7	16	23	0
-7	-16	-23	0
7	17	19	0
-7	-17	-19	0
7	17	21	0
-7	-17	-21	0
7	17	23	0
-7	-17	-23	0
7	19	23	0
-7	-19	-23	0
8	9	12	0
-8	-9	-12	0
8	9	13	0
-8	-9	-13	0
8	9	22	0
-8	-9	-22	0
8	9	23	0
-8	-9	-23	0
8	9	24	0
-8	-9	-24	0
8	12	13	0
-8	-12	-13	0
8	12	16	0
-8	-12	-16	0
8	12	23	0
-8	-12	-23	0
8	13	16	0
-8	-13	-16	0
8	13	20	0
-8	-13	-20	0
8	13	22	0
-8	-13	-22	0
8	13	23	0
-8	-13	-23	0
8	16	18	0
-8	-16	-18	0
8	16	22	0
-8	-16	-22	0
8	16	23	0
-8	-16	-23	0
8	16	24	0
-8	-16	-24	0
8	18	24	0
-8	-18	-24	0
8	20	24	0
-8	-20	-24	0
8	22	23	0
-8	-22	-23	0
8	22	24	0
-8	-22	-24	0
8	23	24	0
-8	-23	-24	0
9	11	12	0
-9	-11	-12	0
9	11	14	0
-9	-11	-14	0
9	11	21	0
-9	-11	-21	0
9	11	22	0
-9	-11	-22	0
9	11	23	0
-9	-11	-23	0
9	12	13	0
-9	-12	-13	0
9	12	14	0
-9	-12	-14	0
9	12	19	0
-9	-12	-19	0
9	12	23	0
-9	-12	-23	0
9	13	14	0
-9	-13	-14	0
9	13	22	0
-9	-13	-22	0
9	13	23	0
-9	-13	-23	0
9	14	19	0
-9	-14	-19	0
9	14	23	0
-9	-14	-23	0
9	14	24	0
-9	-14	-24	0
9	19	23	0
-9	-19	-23	0
9	19	24	0
-9	-19	-24	0
9	21	24	0
-9	-21	-24	0
9	22	23	0
-9	-22	-23	0
9	22	24	0
-9	-22	-24	0
9	23	24	0
-9	-23	-24	0
10	15	19	0
-10	-15	-19	0
10	15	23	0
-10	-15	-23	0
10	15	24	0
-10	-15	-24	0
10	19	23	0
-10	-19	-23	0
10	19	24	0
-10	-19	-24	0
10	23	24	0
-10	-23	-24	0
11	12	14	0
-11	-12	-14	0
11	12	16	0
-11	-12	-16	0
11	12	23	0
-11	-12	-23	0
11	14	16	0
-11	-14	-16	0
11	14	23	0
-11	-14	-23	0
11	16	18	0
-11	-16	-18	0
11	16	21	0
-11	-16	-21	0
11	16	22	0
-11	-16	-22	0
11	16	23	0
-11	-16	-23	0
11	22	23	0
-11	-22	-23	0
12	13	14	0
-12	-13	-14	0
12	13	15	0
-12	-13	-15	0
12	13	16	0
-12	-13	-16	0
12	13	17	0
-12	-13	-17	0
12	13	23	0
-12	-13	-23	0
12	14	15	0
-12	-14	-15	0
12	14	16	0
-12	-14	-16	0
12	14	19	0
-12	-14	-19	0
12	14	23	0
-12	-14	-23	0
12	15	16	0
-12	-15	-16	0
12	15	17	0
-12	-15	-17	0
12	15	19	0
-12	-15	-19	0
12	15	23	0
-12	-15	-23	0
12	16	17	0
-12	-16	-17	0
12	16	19	0
-12	-16	-19	0
12	16	23	0
-12	-16	-23	0
12	17	19	0
-12	-17	-19	0
12	17	23	0
-12	-17	-23	0
12	19	23	0
-12	-19	-23	0
13	14	15	0
-13	-14	-15	0
13	14	16	0
-13	-14	-16	0
13	14	23	0
-13	-14	-23	0
13	15	16	0
-13	-15	-16	0
13	15	17	0
-13	-15	-17	0
13	15	23	0
-13	-15	-23	0
13	16	17	0
-13	-16	-17	0
13	16	22	0
-13	-16	-22	0
13	16	23	0
-13	-16	-23	0
13	17	22	0
-13	-17	-22	0
13	17	23	0
-13	-17	-23	0
13	22	23	0
-13	-22	-23	0
14	15	16	0
-14	-15	-16	0
14	15	19	0
-14	-15	-19	0
14	15	23	0
-14	-15	-23	0
14	15	24	0
-14	-15	-24	0
14	16	19	0
-14	-16	-19	0
14	16	23	0
-14	-16	-23	0
14	16	24	0
-14	-16	-24	0
14	19	23	0
-14	-19	-23	0
14	19	24	0
-14	-19	-24	0
14	23	24	0
-14	-23	-24	0
15	16	17	0
-15	-16	-17	0
15	16	18	0
-15	-16	-18	0
15	16	19	0
-15	-16	-19	0
15	16	21	0
-15	-16	-21	0
15	16	23	0
-15	-16	-23	0
15	16	24	0
-15	-16	-24	0
15	17	19	0
-15	-17	-19	0
15	17	21	0
-15	-17	-21	0
15	17	23	0
-15	-17	-23	0
15	18	19	0
-15	-18	-19	0
15	18	24	0
-15	-18	-24	0
15	19	23	0
-15	-19	-23	0
15	19	24	0
-15	-19	-24	0
15	21	24	0
-15	-21	-24	0
15	23	24	0
-15	-23	-24	0
16	17	19	0
-16	-17	-19	0
16	17	21	0
-16	-17	-21	0
16	17	22	0
-16	-17	-22	0
16	17	23	0
-16	-17	-23	0
16	18	19	0
-16	-18	-19	0
16	18	24	0
-16	-18	-24	0
16	19	23	0
-16	-19	-23	0
16	19	24	0
-16	-19	-24	0
16	21	24	0
-16	-21	-24	0
16	22	23	0
-16	-22	-23	0
16	22	24	0
-16	-22	-24	0
16	23	24	0
-16	-23	-24	0
17	19	23	0
-17	-19	-23	0
17	22	23	0
-17	-22	-23	0
18	19	24	0
-18	-19	-24	0
19	23	24	0
-19	-23	-24	0
22	23	24	0
-22	-23	-24	0